(declare-datatypes (T1 T2 T3 T4 T5)
 ((Recv (mk-recv (match T1) (ep T2) (var T3) (event T4) (nearestwait T5)))))
(declare-datatypes (T1 T2 T3 T4)
((Send (mk-send (match T1) (ep T2) (value T3) (event T4)))))
(define-fun HB ((a Int) (b Int)) Bool
  (if(< a b)
 true
 false))

(define-fun MATCH ((r (Recv Int Int Int Int Int)) (s (Send Int Int Int Int))) Bool
(if(and (= (ep r) (ep s)) (= (var r) (value s))
(= (event s) (nearestwait r)) (= (match r) (event s))
(= (match s) (event r)))
true
false
)
)

(declare-const T1_0 Int)
(declare-const T1_1 Int)
(declare-const T0_0 Int)
(declare-const buffer_0_0 Int)
(declare-const T0_1 Int)
(declare-const T0_2 Int)
(declare-const buffer_r_0_2 Int)
(declare-const T1_2 Int)
(declare-const T1_3 Int)
(declare-const T0_3 Int)
(declare-const buffer_0_3 Int)
(declare-const T0_4 Int)
(declare-const T0_5 Int)
(declare-const buffer_r_0_5 Int)
(declare-const T1_4 Int)
(declare-const T1_5 Int)
(declare-const T1_6 Int)
(declare-const T1_7 Int)
(declare-const T1_8 Int)
(declare-const T1_9 Int)
(declare-const T0_6 Int)
(declare-const buffer_0_6 Int)
(declare-const T0_7 Int)
(declare-const T0_8 Int)
(declare-const buffer_r_0_8 Int)
(declare-const T0_9 Int)
(declare-const buffer_0_9 Int)
(declare-const T0_10 Int)
(declare-const T0_11 Int)
(declare-const buffer_r_0_11 Int)
(declare-const T0_12 Int)
(declare-const buffer_0_12 Int)
(declare-const T0_13 Int)
(declare-const T0_14 Int)
(declare-const buffer_r_0_14 Int)
(declare-const T1_10 Int)
(declare-const T1_11 Int)
(declare-const T1_12 Int)
(declare-const T1_13 Int)
(declare-const T1_14 Int)
(declare-const T1_15 Int)
(declare-const T1_16 Int)
(declare-const T1_17 Int)
(declare-const T1_18 Int)
(declare-const T1_19 Int)
(declare-const T0_15 Int)
(declare-const buffer_0_15 Int)
(declare-const T0_16 Int)
(declare-const T1_20 Int)
(declare-const T1_21 Int)
(declare-const T0_17 Int)
(declare-const buffer_r_0_17 Int)
(declare-const T0_18 Int)
(declare-const buffer_0_18 Int)
(declare-const T0_19 Int)
(declare-const T0_20 Int)
(declare-const buffer_r_0_20 Int)
(declare-const T0_21 Int)
(declare-const buffer_0_21 Int)
(declare-const T0_22 Int)
(declare-const T0_23 Int)
(declare-const buffer_r_0_23 Int)
(declare-const T0_24 Int)
(declare-const buffer_0_24 Int)
(declare-const T0_25 Int)
(declare-const T0_26 Int)
(declare-const buffer_r_0_26 Int)
(declare-const T0_27 Int)
(declare-const buffer_0_27 Int)
(declare-const T0_28 Int)
(declare-const T0_29 Int)
(declare-const buffer_r_0_29 Int)
(declare-const T0_30 Int)
(declare-const buffer_0_30 Int)
(declare-const T0_31 Int)
(declare-const T0_32 Int)
(declare-const buffer_r_0_32 Int)
(declare-const T1_22 Int)
(declare-const T1_23 Int)
(declare-const T1_24 Int)
(declare-const T1_25 Int)
(declare-const T1_26 Int)
(declare-const T1_27 Int)
(declare-const T1_28 Int)
(declare-const T1_29 Int)
(declare-const T1_30 Int)
(declare-const T1_31 Int)
(declare-const T1_32 Int)
(declare-const T1_33 Int)
(declare-const T1_34 Int)
(declare-const T1_35 Int)
(declare-const T1_36 Int)
(declare-const T1_37 Int)
(declare-const T1_38 Int)
(declare-const T1_39 Int)
(declare-const T0_33 Int)
(declare-const buffer_0_33 Int)
(declare-const T0_34 Int)
(declare-const T1_40 Int)
(declare-const T1_41 Int)
(declare-const T0_35 Int)
(declare-const buffer_r_0_35 Int)
(declare-const T0_36 Int)
(declare-const buffer_0_36 Int)
(declare-const T0_37 Int)
(declare-const T0_38 Int)
(declare-const buffer_r_0_38 Int)
(declare-const T0_39 Int)
(declare-const buffer_0_39 Int)
(declare-const T0_40 Int)
(declare-const T0_41 Int)
(declare-const buffer_r_0_41 Int)
(declare-const T0_42 Int)
(declare-const buffer_0_42 Int)
(declare-const T0_43 Int)
(declare-const T0_44 Int)
(declare-const buffer_r_0_44 Int)
(declare-const T0_45 Int)
(declare-const buffer_0_45 Int)
(declare-const T0_46 Int)
(declare-const T0_47 Int)
(declare-const buffer_r_0_47 Int)
(declare-const T0_48 Int)
(declare-const buffer_0_48 Int)
(declare-const T0_49 Int)
(declare-const T0_50 Int)
(declare-const buffer_r_0_50 Int)
(declare-const T0_51 Int)
(declare-const buffer_0_51 Int)
(declare-const T0_52 Int)
(declare-const T0_53 Int)
(declare-const buffer_r_0_53 Int)
(declare-const T0_54 Int)
(declare-const buffer_0_54 Int)
(declare-const T0_55 Int)
(declare-const T0_56 Int)
(declare-const buffer_r_0_56 Int)
(declare-const T0_57 Int)
(declare-const buffer_0_57 Int)
(declare-const T0_58 Int)
(declare-const T0_59 Int)
(declare-const buffer_r_0_59 Int)
(declare-const T0_60 Int)
(declare-const buffer_0_60 Int)
(declare-const T0_61 Int)
(declare-const T0_62 Int)
(declare-const buffer_r_0_62 Int)
(declare-const T1_42 Int)
(declare-const T1_43 Int)
(declare-const T1_44 Int)
(declare-const T1_45 Int)
(declare-const T1_46 Int)
(declare-const T1_47 Int)
(declare-const T1_48 Int)
(declare-const T1_49 Int)
(declare-const T1_50 Int)
(declare-const T1_51 Int)
(declare-const T1_52 Int)
(declare-const T1_53 Int)
(declare-const T1_54 Int)
(declare-const T1_55 Int)
(declare-const T1_56 Int)
(declare-const T1_57 Int)
(declare-const T1_58 Int)
(declare-const T1_59 Int)
(declare-const T0_63 Int)
(declare-const buffer_0_63 Int)
(declare-const T0_64 Int)
(declare-const T0_65 Int)
(declare-const buffer_r_0_65 Int)
(declare-const T0_66 Int)
(declare-const buffer_0_66 Int)
(declare-const T0_67 Int)
(declare-const T0_68 Int)
(declare-const buffer_r_0_68 Int)
(declare-const T0_69 Int)
(declare-const buffer_0_69 Int)
(declare-const T0_70 Int)
(declare-const T0_71 Int)
(declare-const buffer_r_0_71 Int)
(declare-const T0_72 Int)
(declare-const buffer_0_72 Int)
(declare-const T0_73 Int)
(declare-const T0_74 Int)
(declare-const buffer_r_0_74 Int)
(declare-const T0_75 Int)
(declare-const buffer_0_75 Int)
(declare-const T0_76 Int)
(declare-const T0_77 Int)
(declare-const buffer_r_0_77 Int)
(declare-const T0_78 Int)
(declare-const buffer_0_78 Int)
(declare-const T0_79 Int)
(declare-const T0_80 Int)
(declare-const buffer_r_0_80 Int)
(declare-const T0_81 Int)
(declare-const buffer_0_81 Int)
(declare-const T0_82 Int)
(declare-const T0_83 Int)
(declare-const buffer_r_0_83 Int)
(declare-const T0_84 Int)
(declare-const buffer_0_84 Int)
(declare-const T0_85 Int)
(declare-const T0_86 Int)
(declare-const buffer_r_0_86 Int)
(declare-const T0_87 Int)
(declare-const buffer_0_87 Int)
(declare-const T0_88 Int)
(declare-const T0_89 Int)
(declare-const buffer_r_0_89 Int)

(declare-const sendT1_0 (Send Int Int Int Int))
(assert (and (= (ep sendT1_0) 0) (= (event sendT1_0) T1_0) (= (value sendT1_0) 0)))
(declare-const recvT0_0 (Recv Int Int Int Int Int))
(assert (and (= (ep recvT0_0) 0) (= (event recvT0_0) T0_0) (= (var recvT0_0) buffer_0_0)))
(assert (= (nearestwait recvT0_0) T0_1))
(declare-const sendT1_2 (Send Int Int Int Int))
(assert (and (= (ep sendT1_2) 0) (= (event sendT1_2) T1_2) (= (value sendT1_2) 1)))
(declare-const recvT0_3 (Recv Int Int Int Int Int))
(assert (and (= (ep recvT0_3) 0) (= (event recvT0_3) T0_3) (= (var recvT0_3) buffer_0_3)))
(assert (= (nearestwait recvT0_3) T0_4))
(declare-const sendT1_4 (Send Int Int Int Int))
(assert (and (= (ep sendT1_4) 0) (= (event sendT1_4) T1_4) (= (value sendT1_4) 2)))
(declare-const sendT1_6 (Send Int Int Int Int))
(assert (and (= (ep sendT1_6) 0) (= (event sendT1_6) T1_6) (= (value sendT1_6) 3)))
(declare-const sendT1_8 (Send Int Int Int Int))
(assert (and (= (ep sendT1_8) 0) (= (event sendT1_8) T1_8) (= (value sendT1_8) 4)))
(declare-const recvT0_6 (Recv Int Int Int Int Int))
(assert (and (= (ep recvT0_6) 0) (= (event recvT0_6) T0_6) (= (var recvT0_6) buffer_0_6)))
(assert (= (nearestwait recvT0_6) T0_7))
(declare-const recvT0_9 (Recv Int Int Int Int Int))
(assert (and (= (ep recvT0_9) 0) (= (event recvT0_9) T0_9) (= (var recvT0_9) buffer_0_9)))
(assert (= (nearestwait recvT0_9) T0_10))
(declare-const recvT0_12 (Recv Int Int Int Int Int))
(assert (and (= (ep recvT0_12) 0) (= (event recvT0_12) T0_12) (= (var recvT0_12) buffer_0_12)))
(assert (= (nearestwait recvT0_12) T0_13))
(declare-const sendT1_10 (Send Int Int Int Int))
(assert (and (= (ep sendT1_10) 0) (= (event sendT1_10) T1_10) (= (value sendT1_10) 5)))
(declare-const sendT1_12 (Send Int Int Int Int))
(assert (and (= (ep sendT1_12) 0) (= (event sendT1_12) T1_12) (= (value sendT1_12) 6)))
(declare-const sendT1_14 (Send Int Int Int Int))
(assert (and (= (ep sendT1_14) 0) (= (event sendT1_14) T1_14) (= (value sendT1_14) 7)))
(declare-const sendT1_16 (Send Int Int Int Int))
(assert (and (= (ep sendT1_16) 0) (= (event sendT1_16) T1_16) (= (value sendT1_16) 8)))
(declare-const sendT1_18 (Send Int Int Int Int))
(assert (and (= (ep sendT1_18) 0) (= (event sendT1_18) T1_18) (= (value sendT1_18) 9)))
(declare-const recvT0_15 (Recv Int Int Int Int Int))
(assert (and (= (ep recvT0_15) 0) (= (event recvT0_15) T0_15) (= (var recvT0_15) buffer_0_15)))
(assert (= (nearestwait recvT0_15) T0_16))
(declare-const sendT1_20 (Send Int Int Int Int))
(assert (and (= (ep sendT1_20) 0) (= (event sendT1_20) T1_20) (= (value sendT1_20) 10)))
(declare-const recvT0_18 (Recv Int Int Int Int Int))
(assert (and (= (ep recvT0_18) 0) (= (event recvT0_18) T0_18) (= (var recvT0_18) buffer_0_18)))
(assert (= (nearestwait recvT0_18) T0_19))
(declare-const recvT0_21 (Recv Int Int Int Int Int))
(assert (and (= (ep recvT0_21) 0) (= (event recvT0_21) T0_21) (= (var recvT0_21) buffer_0_21)))
(assert (= (nearestwait recvT0_21) T0_22))
(declare-const recvT0_24 (Recv Int Int Int Int Int))
(assert (and (= (ep recvT0_24) 0) (= (event recvT0_24) T0_24) (= (var recvT0_24) buffer_0_24)))
(assert (= (nearestwait recvT0_24) T0_25))
(declare-const recvT0_27 (Recv Int Int Int Int Int))
(assert (and (= (ep recvT0_27) 0) (= (event recvT0_27) T0_27) (= (var recvT0_27) buffer_0_27)))
(assert (= (nearestwait recvT0_27) T0_28))
(declare-const recvT0_30 (Recv Int Int Int Int Int))
(assert (and (= (ep recvT0_30) 0) (= (event recvT0_30) T0_30) (= (var recvT0_30) buffer_0_30)))
(assert (= (nearestwait recvT0_30) T0_31))
(declare-const sendT1_22 (Send Int Int Int Int))
(assert (and (= (ep sendT1_22) 0) (= (event sendT1_22) T1_22) (= (value sendT1_22) 11)))
(declare-const sendT1_24 (Send Int Int Int Int))
(assert (and (= (ep sendT1_24) 0) (= (event sendT1_24) T1_24) (= (value sendT1_24) 12)))
(declare-const sendT1_26 (Send Int Int Int Int))
(assert (and (= (ep sendT1_26) 0) (= (event sendT1_26) T1_26) (= (value sendT1_26) 13)))
(declare-const sendT1_28 (Send Int Int Int Int))
(assert (and (= (ep sendT1_28) 0) (= (event sendT1_28) T1_28) (= (value sendT1_28) 14)))
(declare-const sendT1_30 (Send Int Int Int Int))
(assert (and (= (ep sendT1_30) 0) (= (event sendT1_30) T1_30) (= (value sendT1_30) 15)))
(declare-const sendT1_32 (Send Int Int Int Int))
(assert (and (= (ep sendT1_32) 0) (= (event sendT1_32) T1_32) (= (value sendT1_32) 16)))
(declare-const sendT1_34 (Send Int Int Int Int))
(assert (and (= (ep sendT1_34) 0) (= (event sendT1_34) T1_34) (= (value sendT1_34) 17)))
(declare-const sendT1_36 (Send Int Int Int Int))
(assert (and (= (ep sendT1_36) 0) (= (event sendT1_36) T1_36) (= (value sendT1_36) 18)))
(declare-const sendT1_38 (Send Int Int Int Int))
(assert (and (= (ep sendT1_38) 0) (= (event sendT1_38) T1_38) (= (value sendT1_38) 19)))
(declare-const recvT0_33 (Recv Int Int Int Int Int))
(assert (and (= (ep recvT0_33) 0) (= (event recvT0_33) T0_33) (= (var recvT0_33) buffer_0_33)))
(assert (= (nearestwait recvT0_33) T0_34))
(declare-const sendT1_40 (Send Int Int Int Int))
(assert (and (= (ep sendT1_40) 0) (= (event sendT1_40) T1_40) (= (value sendT1_40) 20)))
(declare-const recvT0_36 (Recv Int Int Int Int Int))
(assert (and (= (ep recvT0_36) 0) (= (event recvT0_36) T0_36) (= (var recvT0_36) buffer_0_36)))
(assert (= (nearestwait recvT0_36) T0_37))
(declare-const recvT0_39 (Recv Int Int Int Int Int))
(assert (and (= (ep recvT0_39) 0) (= (event recvT0_39) T0_39) (= (var recvT0_39) buffer_0_39)))
(assert (= (nearestwait recvT0_39) T0_40))
(declare-const recvT0_42 (Recv Int Int Int Int Int))
(assert (and (= (ep recvT0_42) 0) (= (event recvT0_42) T0_42) (= (var recvT0_42) buffer_0_42)))
(assert (= (nearestwait recvT0_42) T0_43))
(declare-const recvT0_45 (Recv Int Int Int Int Int))
(assert (and (= (ep recvT0_45) 0) (= (event recvT0_45) T0_45) (= (var recvT0_45) buffer_0_45)))
(assert (= (nearestwait recvT0_45) T0_46))
(declare-const recvT0_48 (Recv Int Int Int Int Int))
(assert (and (= (ep recvT0_48) 0) (= (event recvT0_48) T0_48) (= (var recvT0_48) buffer_0_48)))
(assert (= (nearestwait recvT0_48) T0_49))
(declare-const recvT0_51 (Recv Int Int Int Int Int))
(assert (and (= (ep recvT0_51) 0) (= (event recvT0_51) T0_51) (= (var recvT0_51) buffer_0_51)))
(assert (= (nearestwait recvT0_51) T0_52))
(declare-const recvT0_54 (Recv Int Int Int Int Int))
(assert (and (= (ep recvT0_54) 0) (= (event recvT0_54) T0_54) (= (var recvT0_54) buffer_0_54)))
(assert (= (nearestwait recvT0_54) T0_55))
(declare-const recvT0_57 (Recv Int Int Int Int Int))
(assert (and (= (ep recvT0_57) 0) (= (event recvT0_57) T0_57) (= (var recvT0_57) buffer_0_57)))
(assert (= (nearestwait recvT0_57) T0_58))
(declare-const recvT0_60 (Recv Int Int Int Int Int))
(assert (and (= (ep recvT0_60) 0) (= (event recvT0_60) T0_60) (= (var recvT0_60) buffer_0_60)))
(assert (= (nearestwait recvT0_60) T0_61))
(declare-const sendT1_42 (Send Int Int Int Int))
(assert (and (= (ep sendT1_42) 0) (= (event sendT1_42) T1_42) (= (value sendT1_42) 21)))
(declare-const sendT1_44 (Send Int Int Int Int))
(assert (and (= (ep sendT1_44) 0) (= (event sendT1_44) T1_44) (= (value sendT1_44) 22)))
(declare-const sendT1_46 (Send Int Int Int Int))
(assert (and (= (ep sendT1_46) 0) (= (event sendT1_46) T1_46) (= (value sendT1_46) 23)))
(declare-const sendT1_48 (Send Int Int Int Int))
(assert (and (= (ep sendT1_48) 0) (= (event sendT1_48) T1_48) (= (value sendT1_48) 24)))
(declare-const sendT1_50 (Send Int Int Int Int))
(assert (and (= (ep sendT1_50) 0) (= (event sendT1_50) T1_50) (= (value sendT1_50) 25)))
(declare-const sendT1_52 (Send Int Int Int Int))
(assert (and (= (ep sendT1_52) 0) (= (event sendT1_52) T1_52) (= (value sendT1_52) 26)))
(declare-const sendT1_54 (Send Int Int Int Int))
(assert (and (= (ep sendT1_54) 0) (= (event sendT1_54) T1_54) (= (value sendT1_54) 27)))
(declare-const sendT1_56 (Send Int Int Int Int))
(assert (and (= (ep sendT1_56) 0) (= (event sendT1_56) T1_56) (= (value sendT1_56) 28)))
(declare-const sendT1_58 (Send Int Int Int Int))
(assert (and (= (ep sendT1_58) 0) (= (event sendT1_58) T1_58) (= (value sendT1_58) 29)))
(declare-const recvT0_63 (Recv Int Int Int Int Int))
(assert (and (= (ep recvT0_63) 0) (= (event recvT0_63) T0_63) (= (var recvT0_63) buffer_0_63)))
(assert (= (nearestwait recvT0_63) T0_64))
(declare-const recvT0_66 (Recv Int Int Int Int Int))
(assert (and (= (ep recvT0_66) 0) (= (event recvT0_66) T0_66) (= (var recvT0_66) buffer_0_66)))
(assert (= (nearestwait recvT0_66) T0_67))
(declare-const recvT0_69 (Recv Int Int Int Int Int))
(assert (and (= (ep recvT0_69) 0) (= (event recvT0_69) T0_69) (= (var recvT0_69) buffer_0_69)))
(assert (= (nearestwait recvT0_69) T0_70))
(declare-const recvT0_72 (Recv Int Int Int Int Int))
(assert (and (= (ep recvT0_72) 0) (= (event recvT0_72) T0_72) (= (var recvT0_72) buffer_0_72)))
(assert (= (nearestwait recvT0_72) T0_73))
(declare-const recvT0_75 (Recv Int Int Int Int Int))
(assert (and (= (ep recvT0_75) 0) (= (event recvT0_75) T0_75) (= (var recvT0_75) buffer_0_75)))
(assert (= (nearestwait recvT0_75) T0_76))
(declare-const recvT0_78 (Recv Int Int Int Int Int))
(assert (and (= (ep recvT0_78) 0) (= (event recvT0_78) T0_78) (= (var recvT0_78) buffer_0_78)))
(assert (= (nearestwait recvT0_78) T0_79))
(declare-const recvT0_81 (Recv Int Int Int Int Int))
(assert (and (= (ep recvT0_81) 0) (= (event recvT0_81) T0_81) (= (var recvT0_81) buffer_0_81)))
(assert (= (nearestwait recvT0_81) T0_82))
(declare-const recvT0_84 (Recv Int Int Int Int Int))
(assert (and (= (ep recvT0_84) 0) (= (event recvT0_84) T0_84) (= (var recvT0_84) buffer_0_84)))
(assert (= (nearestwait recvT0_84) T0_85))
(declare-const recvT0_87 (Recv Int Int Int Int Int))
(assert (and (= (ep recvT0_87) 0) (= (event recvT0_87) T0_87) (= (var recvT0_87) buffer_0_87)))
(assert (= (nearestwait recvT0_87) T0_88))

(assert (and
(HB T0_0 T0_1) (HB T1_0 T1_2) (HB T0_0 T0_3) (HB T0_3 T0_4) (HB T1_2 T1_4) (HB T1_4 T1_6) (HB T1_6 T1_8) (HB T0_3 T0_6) (HB T0_6 T0_7) (HB T0_6 T0_9) (HB T0_9 T0_10) (HB T0_9 T0_12) (HB T0_12 T0_13) (HB T1_8 T1_10) (HB T1_10 T1_12) (HB T1_12 T1_14) (HB T1_14 T1_16) (HB T1_16 T1_18) (HB T0_12 T0_15) (HB T0_15 T0_16) (HB T1_18 T1_20) (HB T0_15 T0_18) (HB T0_18 T0_19) (HB T0_18 T0_21) (HB T0_21 T0_22) (HB T0_21 T0_24) (HB T0_24 T0_25) (HB T0_24 T0_27) (HB T0_27 T0_28) (HB T0_27 T0_30) (HB T0_30 T0_31) (HB T1_20 T1_22) (HB T1_22 T1_24) (HB T1_24 T1_26) (HB T1_26 T1_28) (HB T1_28 T1_30) (HB T1_30 T1_32) (HB T1_32 T1_34) (HB T1_34 T1_36) (HB T1_36 T1_38) (HB T0_30 T0_33) (HB T0_33 T0_34) (HB T1_38 T1_40) (HB T0_33 T0_36) (HB T0_36 T0_37) (HB T0_36 T0_39) (HB T0_39 T0_40) (HB T0_39 T0_42) (HB T0_42 T0_43) (HB T0_42 T0_45) (HB T0_45 T0_46) (HB T0_45 T0_48) (HB T0_48 T0_49) (HB T0_48 T0_51) (HB T0_51 T0_52) (HB T0_51 T0_54) (HB T0_54 T0_55) (HB T0_54 T0_57) (HB T0_57 T0_58) (HB T0_57 T0_60) (HB T0_60 T0_61) (HB T1_40 T1_42) (HB T1_42 T1_44) (HB T1_44 T1_46) (HB T1_46 T1_48) (HB T1_48 T1_50) (HB T1_50 T1_52) (HB T1_52 T1_54) (HB T1_54 T1_56) (HB T1_56 T1_58) (HB T0_60 T0_63) (HB T0_63 T0_64) (HB T0_63 T0_66) (HB T0_66 T0_67) (HB T0_66 T0_69) (HB T0_69 T0_70) (HB T0_69 T0_72) (HB T0_72 T0_73) (HB T0_72 T0_75) (HB T0_75 T0_76) (HB T0_75 T0_78) (HB T0_78 T0_79) (HB T0_78 T0_81) (HB T0_81 T0_82) (HB T0_81 T0_84) (HB T0_84 T0_85) (HB T0_84 T0_87) (HB T0_87 T0_88) ))


(assert (and
(or (MATCH recvT0_39 sendT1_26) )
(or (MATCH recvT0_69 sendT1_46) )
(or (MATCH recvT0_36 sendT1_24) )
(or (MATCH recvT0_66 sendT1_44) )
(or (MATCH recvT0_33 sendT1_22) )
(or (MATCH recvT0_63 sendT1_42) )
(or (MATCH recvT0_30 sendT1_20) )
(or (MATCH recvT0_60 sendT1_40) )
(or (MATCH recvT0_18 sendT1_12) )
(or (MATCH recvT0_48 sendT1_32) )
(or (MATCH recvT0_78 sendT1_52) )
(or (MATCH recvT0_15 sendT1_10) )
(or (MATCH recvT0_45 sendT1_30) )
(or (MATCH recvT0_75 sendT1_50) )
(or (MATCH recvT0_9 sendT1_6) )
(or (MATCH recvT0_12 sendT1_8) )
(or (MATCH recvT0_42 sendT1_28) )
(or (MATCH recvT0_72 sendT1_48) )
(or (MATCH recvT0_6 sendT1_4) )
(or (MATCH recvT0_3 sendT1_2) )
(or (MATCH recvT0_0 sendT1_0) )
(or (MATCH recvT0_27 sendT1_18) )
(or (MATCH recvT0_57 sendT1_38) )
(or (MATCH recvT0_87 sendT1_58) )
(or (MATCH recvT0_24 sendT1_16) )
(or (MATCH recvT0_54 sendT1_36) )
(or (MATCH recvT0_84 sendT1_56) )
(or (MATCH recvT0_21 sendT1_14) )
(or (MATCH recvT0_51 sendT1_34) )
(or (MATCH recvT0_81 sendT1_54) )
))

(assert (= buffer_r_0_2 0))
(assert (= buffer_r_0_5 1))
(assert (= buffer_r_0_8 2))
(assert (= buffer_r_0_11 3))
(assert (= buffer_r_0_14 4))
(assert (= buffer_r_0_17 5))
(assert (= buffer_r_0_20 6))
(assert (= buffer_r_0_23 7))
(assert (= buffer_r_0_26 8))
(assert (= buffer_r_0_29 9))
(assert (= buffer_r_0_32 10))
(assert (= buffer_r_0_35 11))
(assert (= buffer_r_0_38 12))
(assert (= buffer_r_0_41 13))
(assert (= buffer_r_0_44 14))
(assert (= buffer_r_0_47 15))
(assert (= buffer_r_0_50 16))
(assert (= buffer_r_0_53 17))
(assert (= buffer_r_0_56 18))
(assert (= buffer_r_0_59 19))
(assert (= buffer_r_0_62 20))
(assert (= buffer_r_0_65 21))
(assert (= buffer_r_0_68 22))
(assert (= buffer_r_0_71 23))
(assert (= buffer_r_0_74 24))
(assert (= buffer_r_0_77 25))
(assert (= buffer_r_0_80 26))
(assert (= buffer_r_0_83 27))
(assert (= buffer_r_0_86 28))
(assert (= buffer_r_0_89 29))

(check-sat)
